webassembly/ejemplos_dzn/folder6_json_83.dzn
TERM = { '.', 's(2)', 'in_1', 'local_0', 'local_1', 's(1)', 's(0)', 's(3)', 'in_0'};
null = '.';
s = 6;
n = 7;
ndeps = 0;
max_registers_sz = 5;
NR = 2;
registers = [|'local_0', 'in_0', |'local_1', 's(1)'|];
dependencies = [| |];
GET_ENUM = { GET1, GET2, GET3, GET4, GET5, GET6, GET7};
SET_ENUM = { SET1, SET2, SET3, SET4, SET5, SET6, SET7};
TEE_ENUM = { TEE1, TEE2, TEE3, TEE4, TEE5, TEE6, TEE7};
N = 4;
OP = { 'i32.const_0', 'i32.sub_0', 'i32.load16_u_2', 'i32.load16_u_4' };
in_ops = [0, 2, 1, 1 ];
out_ops = [1, 1, 1, 1 ];
in1 = ['.', 'in_0', 's(0)', 's(1)' ];
in2 = ['.', 'in_1', '.', '.' ];
in3 = ['.', '.', '.', '.' ];
out1 = ['s(3)', 's(0)', 's(1)', 's(2)' ];
out2 = ['.', '.', '.', '.' ];
out3 = ['.', '.', '.', '.' ];
comm = [false, false, false, false ];
gas = [1, 1, 1, 1 ];
sz = [1, 1, 1, 1 ];
stor = [false, false, false, false ];
lb = [ 1, 1, 1, 1 ];
ub = [ 6, 6, 6, 6 ];
startstack = [ 'in_0', 'in_1', null, null, null, null, null ];
endstack = [ 's(3)', 's(2)', null, null, null, null, null ];
