webassembly/ejemplos_results/6/folder6_json_83.txt
value = 6;
fgas = [1, 1, 1, 1, 1, 1];
fsize = [1, 1, 1, 1, 1, 1];
states = 
[|   in_0,   in_1, '.', '.', '.', '.', '.'
 |   in_0,   in_1, '.', '.', '.', '.', '.'
 | 's(0)',    '.', '.', '.', '.', '.', '.'
 | 's(1)',    '.', '.', '.', '.', '.', '.'
 | 's(1)',    '.', '.', '.', '.', '.', '.'
 | 's(2)',    '.', '.', '.', '.', '.', '.'
 | 's(3)', 's(2)', '.', '.', '.', '.', '.'
 |];
register_states = 
[| local_0, local_1, '.', '.', '.', '.', '.'
 |    in_0, local_1, '.', '.', '.', '.', '.'
 |    in_0, local_1, '.', '.', '.', '.', '.'
 |    in_0, local_1, '.', '.', '.', '.', '.'
 |    in_0,  's(1)', '.', '.', '.', '.', '.'
 |    in_0,  's(1)', '.', '.', '.', '.', '.'
 |    in_0,  's(1)', '.', '.', '.', '.', '.'
 |];
program = [TEE(TEE1), O('i32.sub_0'), O('i32.load16_u_2'), TEE(TEE2), O('i32.load16_u_4'), O('i32.const_0')];
% time elapsed: 0.09 s
----------
==========
% time elapsed: 0.09 s
% [value > 5]
